language ESSENCE' 1.0

letting C_FunctionND be
        [[0, 0, 0, 0, 0, 0, 0, 0, 0, 0, 0, 0, 0, 0, 0, 0, 0, 0, 0, 0, 0, 0; int(0..21)],
         [1, 0, 0, 0, 0, 0, 0, 0, 0, 0, 0, 0, 0, 0, 0, 0, 0, 0, 0, 0, 0, 0; int(0..21)],
         [1, 0, 0, 0, 0, 0, 0, 0, 0, 0, 0, 0, 0, 0, 0, 0, 0, 0, 0, 0, 0, 0; int(0..21)],
         [1, 0, 0, 0, 0, 0, 0, 0, 0, 0, 0, 0, 0, 0, 0, 0, 0, 0, 0, 0, 0, 0; int(0..21)],
         [1, 0, 0, 0, 0, 0, 0, 0, 0, 0, 0, 0, 0, 0, 0, 0, 0, 0, 0, 0, 0, 0; int(0..21)],
         [1, 0, 0, 0, 0, 0, 0, 0, 0, 0, 0, 0, 0, 0, 0, 0, 0, 0, 0, 0, 0, 0; int(0..21)],
         [1, 0, 0, 0, 0, 0, 0, 0, 0, 0, 0, 0, 0, 0, 0, 0, 0, 0, 0, 0, 0, 0; int(0..21)],
         [1, 0, 0, 0, 0, 0, 0, 0, 0, 0, 0, 0, 0, 0, 0, 0, 0, 0, 0, 0, 0, 0; int(0..21)],
         [1, 0, 0, 0, 0, 0, 0, 0, 0, 0, 0, 0, 0, 0, 0, 0, 0, 0, 0, 0, 0, 0; int(0..21)],
         [1, 0, 0, 0, 0, 0, 0, 0, 0, 0, 0, 0, 0, 0, 0, 0, 0, 0, 0, 0, 0, 0; int(0..21)],
         [1, 0, 0, 0, 0, 0, 0, 0, 0, 0, 0, 0, 0, 0, 0, 0, 0, 0, 0, 0, 0, 0; int(0..21)],
         [0, 1, 1, 1, 1, 1, 1, 0, 1, 1, 1, 0, 0, 0, 0, 0, 0, 0, 0, 0, 0, 0; int(0..21)],
         [0, 1, 0, 0, 0, 0, 0, 1, 0, 0, 0, 0, 0, 0, 0, 0, 0, 0, 0, 0, 0, 0; int(0..21)],
         [0, 0, 1, 0, 0, 0, 0, 1, 0, 0, 0, 0, 0, 0, 0, 0, 0, 0, 0, 0, 0, 0; int(0..21)],
         [0, 0, 0, 1, 0, 0, 0, 1, 0, 0, 0, 0, 0, 0, 0, 0, 0, 0, 0, 0, 0, 0; int(0..21)],
         [0, 0, 0, 0, 1, 0, 0, 1, 0, 0, 0, 0, 0, 0, 0, 0, 0, 0, 0, 0, 0, 0; int(0..21)],
         [0, 0, 0, 0, 0, 1, 0, 1, 0, 0, 0, 0, 0, 0, 0, 0, 0, 0, 0, 0, 0, 0; int(0..21)],
         [0, 0, 0, 0, 0, 0, 1, 1, 0, 0, 0, 0, 0, 0, 0, 0, 0, 0, 0, 0, 0, 0; int(0..21)],
         [0, 0, 0, 0, 0, 0, 0, 1, 1, 0, 0, 0, 0, 0, 0, 0, 0, 0, 0, 0, 0, 0; int(0..21)],
         [0, 0, 0, 0, 0, 0, 0, 1, 0, 1, 0, 0, 0, 0, 0, 0, 0, 0, 0, 0, 0, 0; int(0..21)],
         [0, 0, 0, 0, 0, 0, 0, 1, 0, 0, 1, 0, 0, 0, 0, 0, 0, 0, 0, 0, 0, 0; int(0..21)],
         [0, 0, 0, 0, 0, 0, 0, 0, 0, 0, 0, 1, 1, 1, 1, 1, 1, 1, 1, 1, 1, 0; int(0..21)];
             int(0..21)]
$ Visualisation for C_FunctionND
$ 0 0 0 0 0 0 0 0 0 0 0 0 0 0 0 0 0 0 0 0 0 0
$ 1 0 0 0 0 0 0 0 0 0 0 0 0 0 0 0 0 0 0 0 0 0
$ 1 0 0 0 0 0 0 0 0 0 0 0 0 0 0 0 0 0 0 0 0 0
$ 1 0 0 0 0 0 0 0 0 0 0 0 0 0 0 0 0 0 0 0 0 0
$ 1 0 0 0 0 0 0 0 0 0 0 0 0 0 0 0 0 0 0 0 0 0
$ 1 0 0 0 0 0 0 0 0 0 0 0 0 0 0 0 0 0 0 0 0 0
$ 1 0 0 0 0 0 0 0 0 0 0 0 0 0 0 0 0 0 0 0 0 0
$ 1 0 0 0 0 0 0 0 0 0 0 0 0 0 0 0 0 0 0 0 0 0
$ 1 0 0 0 0 0 0 0 0 0 0 0 0 0 0 0 0 0 0 0 0 0
$ 1 0 0 0 0 0 0 0 0 0 0 0 0 0 0 0 0 0 0 0 0 0
$ 1 0 0 0 0 0 0 0 0 0 0 0 0 0 0 0 0 0 0 0 0 0
$ 0 1 1 1 1 1 1 0 1 1 1 0 0 0 0 0 0 0 0 0 0 0
$ 0 1 0 0 0 0 0 1 0 0 0 0 0 0 0 0 0 0 0 0 0 0
$ 0 0 1 0 0 0 0 1 0 0 0 0 0 0 0 0 0 0 0 0 0 0
$ 0 0 0 1 0 0 0 1 0 0 0 0 0 0 0 0 0 0 0 0 0 0
$ 0 0 0 0 1 0 0 1 0 0 0 0 0 0 0 0 0 0 0 0 0 0
$ 0 0 0 0 0 1 0 1 0 0 0 0 0 0 0 0 0 0 0 0 0 0
$ 0 0 0 0 0 0 1 1 0 0 0 0 0 0 0 0 0 0 0 0 0 0
$ 0 0 0 0 0 0 0 1 1 0 0 0 0 0 0 0 0 0 0 0 0 0
$ 0 0 0 0 0 0 0 1 0 1 0 0 0 0 0 0 0 0 0 0 0 0
$ 0 0 0 0 0 0 0 1 0 0 1 0 0 0 0 0 0 0 0 0 0 0
$ 0 0 0 0 0 0 0 0 0 0 0 1 1 1 1 1 1 1 1 1 1 0

letting J_FunctionND be
        [[0, 1, 2, 3, 4, 5, 6, 7, 8, 9, 10, 11, 12, 13, 14, 15, 16, 17, 18, 19, 20, 21; int(0..21)],
         [1, 1, 11, 11, 11, 11, 11, 12, 11, 11, 11, 11, 12, 21, 21, 21, 21, 21, 21, 21, 21, 21; int(0..21)],
         [2, 11, 2, 11, 11, 11, 11, 13, 11, 11, 11, 11, 21, 13, 21, 21, 21, 21, 21, 21, 21, 21; int(0..21)],
         [3, 11, 11, 3, 11, 11, 11, 14, 11, 11, 11, 11, 21, 21, 14, 21, 21, 21, 21, 21, 21, 21; int(0..21)],
         [4, 11, 11, 11, 4, 11, 11, 15, 11, 11, 11, 11, 21, 21, 21, 15, 21, 21, 21, 21, 21, 21; int(0..21)],
         [5, 11, 11, 11, 11, 5, 11, 16, 11, 11, 11, 11, 21, 21, 21, 21, 16, 21, 21, 21, 21, 21; int(0..21)],
         [6, 11, 11, 11, 11, 11, 6, 17, 11, 11, 11, 11, 21, 21, 21, 21, 21, 17, 21, 21, 21, 21; int(0..21)],
         [7, 12, 13, 14, 15, 16, 17, 7, 18, 19, 20, 21, 12, 13, 14, 15, 16, 17, 18, 19, 20, 21; int(0..21)],
         [8, 11, 11, 11, 11, 11, 11, 18, 8, 11, 11, 11, 21, 21, 21, 21, 21, 21, 18, 21, 21, 21; int(0..21)],
         [9, 11, 11, 11, 11, 11, 11, 19, 11, 9, 11, 11, 21, 21, 21, 21, 21, 21, 21, 19, 21, 21; int(0..21)],
         [10, 11, 11, 11, 11, 11, 11, 20, 11, 11, 10, 11, 21, 21, 21, 21, 21, 21, 21, 21, 20, 21; int(0..21)],
         [11, 11, 11, 11, 11, 11, 11, 21, 11, 11, 11, 11, 21, 21, 21, 21, 21, 21, 21, 21, 21, 21; int(0..21)],
         [12, 12, 21, 21, 21, 21, 21, 12, 21, 21, 21, 21, 12, 21, 21, 21, 21, 21, 21, 21, 21, 21; int(0..21)],
         [13, 21, 13, 21, 21, 21, 21, 13, 21, 21, 21, 21, 21, 13, 21, 21, 21, 21, 21, 21, 21, 21; int(0..21)],
         [14, 21, 21, 14, 21, 21, 21, 14, 21, 21, 21, 21, 21, 21, 14, 21, 21, 21, 21, 21, 21, 21; int(0..21)],
         [15, 21, 21, 21, 15, 21, 21, 15, 21, 21, 21, 21, 21, 21, 21, 15, 21, 21, 21, 21, 21, 21; int(0..21)],
         [16, 21, 21, 21, 21, 16, 21, 16, 21, 21, 21, 21, 21, 21, 21, 21, 16, 21, 21, 21, 21, 21; int(0..21)],
         [17, 21, 21, 21, 21, 21, 17, 17, 21, 21, 21, 21, 21, 21, 21, 21, 21, 17, 21, 21, 21, 21; int(0..21)],
         [18, 21, 21, 21, 21, 21, 21, 18, 18, 21, 21, 21, 21, 21, 21, 21, 21, 21, 18, 21, 21, 21; int(0..21)],
         [19, 21, 21, 21, 21, 21, 21, 19, 21, 19, 21, 21, 21, 21, 21, 21, 21, 21, 21, 19, 21, 21; int(0..21)],
         [20, 21, 21, 21, 21, 21, 21, 20, 21, 21, 20, 21, 21, 21, 21, 21, 21, 21, 21, 21, 20, 21; int(0..21)],
         [21, 21, 21, 21, 21, 21, 21, 21, 21, 21, 21, 21, 21, 21, 21, 21, 21, 21, 21, 21, 21, 21; int(0..21)];
             int(0..21)]
$ Visualisation for J_FunctionND
$  0  1  2  3  4  5  6  7  8  9 10 11 12 13 14 15 16 17 18 19 20 21
$  1  1 11 11 11 11 11 12 11 11 11 11 12 21 21 21 21 21 21 21 21 21
$  2 11  2 11 11 11 11 13 11 11 11 11 21 13 21 21 21 21 21 21 21 21
$  3 11 11  3 11 11 11 14 11 11 11 11 21 21 14 21 21 21 21 21 21 21
$  4 11 11 11  4 11 11 15 11 11 11 11 21 21 21 15 21 21 21 21 21 21
$  5 11 11 11 11  5 11 16 11 11 11 11 21 21 21 21 16 21 21 21 21 21
$  6 11 11 11 11 11  6 17 11 11 11 11 21 21 21 21 21 17 21 21 21 21
$  7 12 13 14 15 16 17  7 18 19 20 21 12 13 14 15 16 17 18 19 20 21
$  8 11 11 11 11 11 11 18  8 11 11 11 21 21 21 21 21 21 18 21 21 21
$  9 11 11 11 11 11 11 19 11  9 11 11 21 21 21 21 21 21 21 19 21 21
$ 10 11 11 11 11 11 11 20 11 11 10 11 21 21 21 21 21 21 21 21 20 21
$ 11 11 11 11 11 11 11 21 11 11 11 11 21 21 21 21 21 21 21 21 21 21
$ 12 12 21 21 21 21 21 12 21 21 21 21 12 21 21 21 21 21 21 21 21 21
$ 13 21 13 21 21 21 21 13 21 21 21 21 21 13 21 21 21 21 21 21 21 21
$ 14 21 21 14 21 21 21 14 21 21 21 21 21 21 14 21 21 21 21 21 21 21
$ 15 21 21 21 15 21 21 15 21 21 21 21 21 21 21 15 21 21 21 21 21 21
$ 16 21 21 21 21 16 21 16 21 21 21 21 21 21 21 21 16 21 21 21 21 21
$ 17 21 21 21 21 21 17 17 21 21 21 21 21 21 21 21 21 17 21 21 21 21
$ 18 21 21 21 21 21 21 18 18 21 21 21 21 21 21 21 21 21 18 21 21 21
$ 19 21 21 21 21 21 21 19 21 19 21 21 21 21 21 21 21 21 21 19 21 21
$ 20 21 21 21 21 21 21 20 21 21 20 21 21 21 21 21 21 21 21 21 20 21
$ 21 21 21 21 21 21 21 21 21 21 21 21 21 21 21 21 21 21 21 21 21 21

letting M_FunctionND be
        [[0, 0, 0, 0, 0, 0, 0, 0, 0, 0, 0, 0, 0, 0, 0, 0, 0, 0, 0, 0, 0, 0; int(0..21)],
         [0, 1, 0, 0, 0, 0, 0, 0, 0, 0, 0, 1, 1, 0, 0, 0, 0, 0, 0, 0, 0, 1; int(0..21)],
         [0, 0, 2, 0, 0, 0, 0, 0, 0, 0, 0, 2, 0, 2, 0, 0, 0, 0, 0, 0, 0, 2; int(0..21)],
         [0, 0, 0, 3, 0, 0, 0, 0, 0, 0, 0, 3, 0, 0, 3, 0, 0, 0, 0, 0, 0, 3; int(0..21)],
         [0, 0, 0, 0, 4, 0, 0, 0, 0, 0, 0, 4, 0, 0, 0, 4, 0, 0, 0, 0, 0, 4; int(0..21)],
         [0, 0, 0, 0, 0, 5, 0, 0, 0, 0, 0, 5, 0, 0, 0, 0, 5, 0, 0, 0, 0, 5; int(0..21)],
         [0, 0, 0, 0, 0, 0, 6, 0, 0, 0, 0, 6, 0, 0, 0, 0, 0, 6, 0, 0, 0, 6; int(0..21)],
         [0, 0, 0, 0, 0, 0, 0, 7, 0, 0, 0, 0, 7, 7, 7, 7, 7, 7, 7, 7, 7, 7; int(0..21)],
         [0, 0, 0, 0, 0, 0, 0, 0, 8, 0, 0, 8, 0, 0, 0, 0, 0, 0, 8, 0, 0, 8; int(0..21)],
         [0, 0, 0, 0, 0, 0, 0, 0, 0, 9, 0, 9, 0, 0, 0, 0, 0, 0, 0, 9, 0, 9; int(0..21)],
         [0, 0, 0, 0, 0, 0, 0, 0, 0, 0, 10, 10, 0, 0, 0, 0, 0, 0, 0, 0, 10, 10; int(0..21)],
         [0, 1, 2, 3, 4, 5, 6, 0, 8, 9, 10, 11, 1, 2, 3, 4, 5, 6, 8, 9, 10, 11; int(0..21)],
         [0, 1, 0, 0, 0, 0, 0, 7, 0, 0, 0, 1, 12, 7, 7, 7, 7, 7, 7, 7, 7, 12; int(0..21)],
         [0, 0, 2, 0, 0, 0, 0, 7, 0, 0, 0, 2, 7, 13, 7, 7, 7, 7, 7, 7, 7, 13; int(0..21)],
         [0, 0, 0, 3, 0, 0, 0, 7, 0, 0, 0, 3, 7, 7, 14, 7, 7, 7, 7, 7, 7, 14; int(0..21)],
         [0, 0, 0, 0, 4, 0, 0, 7, 0, 0, 0, 4, 7, 7, 7, 15, 7, 7, 7, 7, 7, 15; int(0..21)],
         [0, 0, 0, 0, 0, 5, 0, 7, 0, 0, 0, 5, 7, 7, 7, 7, 16, 7, 7, 7, 7, 16; int(0..21)],
         [0, 0, 0, 0, 0, 0, 6, 7, 0, 0, 0, 6, 7, 7, 7, 7, 7, 17, 7, 7, 7, 17; int(0..21)],
         [0, 0, 0, 0, 0, 0, 0, 7, 8, 0, 0, 8, 7, 7, 7, 7, 7, 7, 18, 7, 7, 18; int(0..21)],
         [0, 0, 0, 0, 0, 0, 0, 7, 0, 9, 0, 9, 7, 7, 7, 7, 7, 7, 7, 19, 7, 19; int(0..21)],
         [0, 0, 0, 0, 0, 0, 0, 7, 0, 0, 10, 10, 7, 7, 7, 7, 7, 7, 7, 7, 20, 20; int(0..21)],
         [0, 1, 2, 3, 4, 5, 6, 7, 8, 9, 10, 11, 12, 13, 14, 15, 16, 17, 18, 19, 20, 21; int(0..21)];
             int(0..21)]
$ Visualisation for M_FunctionND
$  0  0  0  0  0  0  0  0  0  0  0  0  0  0  0  0  0  0  0  0  0  0
$  0  1  0  0  0  0  0  0  0  0  0  1  1  0  0  0  0  0  0  0  0  1
$  0  0  2  0  0  0  0  0  0  0  0  2  0  2  0  0  0  0  0  0  0  2
$  0  0  0  3  0  0  0  0  0  0  0  3  0  0  3  0  0  0  0  0  0  3
$  0  0  0  0  4  0  0  0  0  0  0  4  0  0  0  4  0  0  0  0  0  4
$  0  0  0  0  0  5  0  0  0  0  0  5  0  0  0  0  5  0  0  0  0  5
$  0  0  0  0  0  0  6  0  0  0  0  6  0  0  0  0  0  6  0  0  0  6
$  0  0  0  0  0  0  0  7  0  0  0  0  7  7  7  7  7  7  7  7  7  7
$  0  0  0  0  0  0  0  0  8  0  0  8  0  0  0  0  0  0  8  0  0  8
$  0  0  0  0  0  0  0  0  0  9  0  9  0  0  0  0  0  0  0  9  0  9
$  0  0  0  0  0  0  0  0  0  0 10 10  0  0  0  0  0  0  0  0 10 10
$  0  1  2  3  4  5  6  0  8  9 10 11  1  2  3  4  5  6  8  9 10 11
$  0  1  0  0  0  0  0  7  0  0  0  1 12  7  7  7  7  7  7  7  7 12
$  0  0  2  0  0  0  0  7  0  0  0  2  7 13  7  7  7  7  7  7  7 13
$  0  0  0  3  0  0  0  7  0  0  0  3  7  7 14  7  7  7  7  7  7 14
$  0  0  0  0  4  0  0  7  0  0  0  4  7  7  7 15  7  7  7  7  7 15
$  0  0  0  0  0  5  0  7  0  0  0  5  7  7  7  7 16  7  7  7  7 16
$  0  0  0  0  0  0  6  7  0  0  0  6  7  7  7  7  7 17  7  7  7 17
$  0  0  0  0  0  0  0  7  8  0  0  8  7  7  7  7  7  7 18  7  7 18
$  0  0  0  0  0  0  0  7  0  9  0  9  7  7  7  7  7  7  7 19  7 19
$  0  0  0  0  0  0  0  7  0  0 10 10  7  7  7  7  7  7  7  7 20 20
$  0  1  2  3  4  5  6  7  8  9 10 11 12 13 14 15 16 17 18 19 20 21

letting R_Function1D be [0, 1, 1, 1, 1, 1, 1, 1, 1, 1, 1, 2, 2, 2, 2, 2, 2, 2, 2, 2, 2, 3; int(0..21)]
